10298.7,59.06,73.26
11127.29,54.66,67.81
10444.38,58.23,72.24
10139.14,59.99,74.41
10259.03,59.29,73.54
10306.18,59.01,73.21
10254.23,59.31,73.58
10579.17,57.49,71.32
10368.62,58.66,72.77
10676.56,56.97,70.67
9564.66,63.59,78.88
10665.09,57.03,70.74
10036.88,60.6,75.17
10500.51,57.92,71.85
10095.05,60.25,74.74
11253.0,54.05,67.05
9028.48,67.37,83.57
10657.53,57.07,70.79
9985.59,60.91,75.56
10748.75,56.58,70.19
